sat
(
  (define-fun PriceProv6 () Int
    128)
  (define-fun C1_VM8 () Int
    1)
  (define-fun C4_VM7 () Int
    0)
  (define-fun C4_VM6 () Int
    0)
  (define-fun C1_VM3 () Int
    1)
  (define-fun ProcProv4 () Int
    4)
  (define-fun C4_VM1 () Int
    0)
  (define-fun ProcProv5 () Int
    4)
  (define-fun StorageProv7 () Int
    1000)
  (define-fun MemProv5 () Int
    30500)
  (define-fun StorageProv2 () Int
    2000)
  (define-fun C3_VM1 () Int
    0)
  (define-fun VM7Type () Int
    15)
  (define-fun C1_VM2 () Int
    1)
  (define-fun C2_VM1 () Int
    1)
  (define-fun MemProv3 () Int
    3750)
  (define-fun C5_VM6 () Int
    0)
  (define-fun PriceProv5 () Int
    379)
  (define-fun ProcProv2 () Int
    2)
  (define-fun C2_VM4 () Int
    0)
  (define-fun ProcProv7 () Int
    4)
  (define-fun ProcProv8 () Int
    2)
  (define-fun MemProv4 () Int
    30500)
  (define-fun C2_VM8 () Int
    0)
  (define-fun C5_VM1 () Int
    0)
  (define-fun PriceProv8 () Int
    128)
  (define-fun C5_VM4 () Int
    1)
  (define-fun C2_VM3 () Int
    0)
  (define-fun MemProv2 () Int
    3750)
  (define-fun PriceProv2 () Int
    128)
  (define-fun StorageProv5 () Int
    1000)
  (define-fun C1_VM1 () Int
    0)
  (define-fun VM5Type () Int
    15)
  (define-fun MemProv1 () Int
    3750)
  (define-fun VM4Type () Int
    15)
  (define-fun VM2Type () Int
    17)
  (define-fun PriceProv1 () Int
    128)
  (define-fun C5_VM2 () Int
    0)
  (define-fun StorageProv1 () Int
    2000)
  (define-fun PriceProv4 () Int
    379)
  (define-fun StorageProv3 () Int
    2000)
  (define-fun C3_VM4 () Int
    0)
  (define-fun StorageProv8 () Int
    2000)
  (define-fun VM6Type () Int
    17)
  (define-fun C3_VM6 () Int
    0)
  (define-fun C3_VM2 () Int
    0)
  (define-fun C3_VM5 () Int
    0)
  (define-fun C2_VM5 () Int
    0)
  (define-fun C4_VM4 () Int
    0)
  (define-fun ProcProv1 () Int
    2)
  (define-fun C5_VM8 () Int
    0)
  (define-fun PriceProv7 () Int
    379)
  (define-fun C1_VM4 () Int
    0)
  (define-fun C4_VM2 () Int
    0)
  (define-fun C5_VM7 () Int
    0)
  (define-fun C2_VM2 () Int
    0)
  (define-fun C3_VM7 () Int
    1)
  (define-fun ProcProv3 () Int
    2)
  (define-fun StorageProv4 () Int
    1000)
  (define-fun C2_VM6 () Int
    1)
  (define-fun C4_VM3 () Int
    0)
  (define-fun VM8Type () Int
    17)
  (define-fun MemProv7 () Int
    30500)
  (define-fun C4_VM5 () Int
    0)
  (define-fun VM3Type () Int
    17)
  (define-fun C1_VM7 () Int
    0)
  (define-fun ProcProv6 () Int
    2)
  (define-fun MemProv6 () Int
    3750)
  (define-fun C5_VM5 () Int
    1)
  (define-fun VM1Type () Int
    17)
  (define-fun C4_VM8 () Int
    0)
  (define-fun C1_VM6 () Int
    0)
  (define-fun C2_VM7 () Int
    0)
  (define-fun C3_VM3 () Int
    0)
  (define-fun C3_VM8 () Int
    0)
  (define-fun PriceProv3 () Int
    128)
  (define-fun MemProv8 () Int
    3750)
  (define-fun C1_VM5 () Int
    0)
  (define-fun StorageProv6 () Int
    2000)
  (define-fun C5_VM3 () Int
    0)
)
(objectives
 ((+ 0
   PriceProv1
   PriceProv2
   PriceProv3
   PriceProv4
   PriceProv5
   PriceProv6
   PriceProv7
   PriceProv8) 1777)
)
(:added-eqs                   909558
 :arith-eq-adapter            10389
 :arith-bound-propagations-lp 857158
 :arith-conflicts             3387
 :arith-diseq                 1216869
 :arith-fixed-eqs             14063
 :arith-lower                 1523046
 :arith-make-feasible         108216
 :arith-max-columns           150
 :arith-max-rows              26
 :arith-upper                 1034700
 :binary-propagations         4341291
 :conflicts                   23902
 :decisions                   70789
 :del-clause                  32894
 :final-checks                173
 :max-memory                  45.94
 :memory                      45.94
 :minimized-lits              363220
 :mk-bool-var                 22686
 :mk-clause                   33945
 :mk-clause-binary            3940
 :num-allocs                  104115138
 :num-checks                  133
 :pb-conflicts                1774
 :pb-predicates               295
 :pb-propagations             57611
 :pb-resolves                 1664
 :propagations                7586114
 :restarts                    173
 :rlimit-count                39568662
 :time                        2.23
 :total-time                  2.24)
